c User generated cnf file
p cnf 6 21
-3 2 5 0 
-3 4 3 0 
-3 5 5 0 
5 -6 6 0 
-1 4 5 0 
-2 5 2 0 
2 -3 5 0 
6 -3 3 0 
5 -5 3 0 
5 -6 4 0 
1 -2 3 0 
-6 6 6 0 
2 3 -2 0 
1 1 -2 0 
2 2 -4 0 
-2 4 6 0 
-1 3 4 0 
-3 5 6 0 
5 -2 4 0 
-4 6 5 0 
2 3 -5 0 
